c CNF file corresponding to a (partial) station packing problem.
p cnf 6756 229
1 2 3 4 5 6 7 8 9 10 11 12 13 14 0
-1 -2 0
-1 -3 0
-1 -4 0
-1 -5 0
-1 -6 0
-1 -7 0
-1 -8 0
-1 -9 0
-1 -10 0
-1 -11 0
-1 -12 0
-1 -13 0
-1 -14 0
-2 -3 0
-2 -4 0
-2 -5 0
-2 -6 0
-2 -7 0
-2 -8 0
-2 -9 0
-2 -10 0
-2 -11 0
-2 -12 0
-2 -13 0
-2 -14 0
-3 -4 0
-3 -5 0
-3 -6 0
-3 -7 0
-3 -8 0
-3 -9 0
-3 -10 0
-3 -11 0
-3 -12 0
-3 -13 0
-3 -14 0
-4 -5 0
-4 -6 0
-4 -7 0
-4 -8 0
-4 -9 0
-4 -10 0
-4 -11 0
-4 -12 0
-4 -13 0
-4 -14 0
-5 -6 0
-5 -7 0
-5 -8 0
-5 -9 0
-5 -10 0
-5 -11 0
-5 -12 0
-5 -13 0
-5 -14 0
-6 -7 0
-6 -8 0
-6 -9 0
-6 -10 0
-6 -11 0
-6 -12 0
-6 -13 0
-6 -14 0
-7 -8 0
-7 -9 0
-7 -10 0
-7 -11 0
-7 -12 0
-7 -13 0
-7 -14 0
-8 -9 0
-8 -10 0
-8 -11 0
-8 -12 0
-8 -13 0
-8 -14 0
-9 -10 0
-9 -11 0
-9 -12 0
-9 -13 0
-9 -14 0
-10 -11 0
-10 -12 0
-10 -13 0
-10 -14 0
-11 -12 0
-11 -13 0
-11 -14 0
-12 -13 0
-12 -14 0
-13 -14 0
6740 6741 6742 6743 6744 6745 6746 6747 6748 6749 6750 6751 6752 6753 6754 6755 6756 0
-6740 -6741 0
-6740 -6742 0
-6740 -6743 0
-6740 -6744 0
-6740 -6745 0
-6740 -6746 0
-6740 -6747 0
-6740 -6748 0
-6740 -6749 0
-6740 -6750 0
-6740 -6751 0
-6740 -6752 0
-6740 -6753 0
-6740 -6754 0
-6740 -6755 0
-6740 -6756 0
-6741 -6742 0
-6741 -6743 0
-6741 -6744 0
-6741 -6745 0
-6741 -6746 0
-6741 -6747 0
-6741 -6748 0
-6741 -6749 0
-6741 -6750 0
-6741 -6751 0
-6741 -6752 0
-6741 -6753 0
-6741 -6754 0
-6741 -6755 0
-6741 -6756 0
-6742 -6743 0
-6742 -6744 0
-6742 -6745 0
-6742 -6746 0
-6742 -6747 0
-6742 -6748 0
-6742 -6749 0
-6742 -6750 0
-6742 -6751 0
-6742 -6752 0
-6742 -6753 0
-6742 -6754 0
-6742 -6755 0
-6742 -6756 0
-6743 -6744 0
-6743 -6745 0
-6743 -6746 0
-6743 -6747 0
-6743 -6748 0
-6743 -6749 0
-6743 -6750 0
-6743 -6751 0
-6743 -6752 0
-6743 -6753 0
-6743 -6754 0
-6743 -6755 0
-6743 -6756 0
-6744 -6745 0
-6744 -6746 0
-6744 -6747 0
-6744 -6748 0
-6744 -6749 0
-6744 -6750 0
-6744 -6751 0
-6744 -6752 0
-6744 -6753 0
-6744 -6754 0
-6744 -6755 0
-6744 -6756 0
-6745 -6746 0
-6745 -6747 0
-6745 -6748 0
-6745 -6749 0
-6745 -6750 0
-6745 -6751 0
-6745 -6752 0
-6745 -6753 0
-6745 -6754 0
-6745 -6755 0
-6745 -6756 0
-6746 -6747 0
-6746 -6748 0
-6746 -6749 0
-6746 -6750 0
-6746 -6751 0
-6746 -6752 0
-6746 -6753 0
-6746 -6754 0
-6746 -6755 0
-6746 -6756 0
-6747 -6748 0
-6747 -6749 0
-6747 -6750 0
-6747 -6751 0
-6747 -6752 0
-6747 -6753 0
-6747 -6754 0
-6747 -6755 0
-6747 -6756 0
-6748 -6749 0
-6748 -6750 0
-6748 -6751 0
-6748 -6752 0
-6748 -6753 0
-6748 -6754 0
-6748 -6755 0
-6748 -6756 0
-6749 -6750 0
-6749 -6751 0
-6749 -6752 0
-6749 -6753 0
-6749 -6754 0
-6749 -6755 0
-6749 -6756 0
-6750 -6751 0
-6750 -6752 0
-6750 -6753 0
-6750 -6754 0
-6750 -6755 0
-6750 -6756 0
-6751 -6752 0
-6751 -6753 0
-6751 -6754 0
-6751 -6755 0
-6751 -6756 0
-6752 -6753 0
-6752 -6754 0
-6752 -6755 0
-6752 -6756 0
-6753 -6754 0
-6753 -6755 0
-6753 -6756 0
-6754 -6755 0
-6754 -6756 0
-6755 -6756 0
